Route #1: 1 8 64 12 55 49 58 24 29 1
Route #2: 1 48 35 27 32 7 65 47 1
Route #3: 1 52 18 16 23 28 15 44 1
Route #4: 1 10 50 61 38 31 1
Route #5: 1 19 22 26 20 25 53 9 11 33 1
Route #6: 1 63 34 2 13 14 57 60 62 1
Route #7: 1 40 30 56 6 46 4 37 36 5 1
Route #8: 1 54 45 41 43 39 17 51 1
Route #9: 1 42 3 59 21 1
cost 1456
